CMD:
./solvers/bin/cadical --plain --no-reduce -t 1600 ./data/cnfs//zipcpu-zipmmu-p09/zipcpu-zipmmu-p09.32.cnf

c --- [ banner ] -------------------------------------------------------------
c 
c CaDiCaL SAT Solver
c Copyright (c) 2016-2024
c A. Biere, M. Fleury, N. Froleyks, K. Fazekas, F. Pollitt, T. Faller
c JKU Linz, University of Freiburg, TU Wien
c 
c Version 2.1.3 5296d3d2a9bf48c154ab2acb5e44625776d821bf
c g++ (Gentoo 12.3.1_p20230526 p2) 12.3.1 20230526 -Wall -Wextra -O3 -DNDEBUG
c Sat Aug 9 07:26:21 PDT 2025 Linux cedar2.int.cedar.computecanada.ca 5.14.0-362.24.2.el9_3.x86_64 x86_64
c 
c --- [ limit ] --------------------------------------------------------------
c 
c setting time limit to 1600 seconds real time (due to '-t 1600')
c 
c --- [ parsing input ] ------------------------------------------------------
c 
c reading DIMACS file from './data/cnfs//zipcpu-zipmmu-p09/zipcpu-zipmmu-p09.32.cnf'
c opening file to read './data/cnfs//zipcpu-zipmmu-p09/zipcpu-zipmmu-p09.32.cnf'
c found 'p cnf 163518 478345' header
c parsed 478345 clauses in 0.08 seconds process time
c 
c --- [ options ] ------------------------------------------------------------
c 
c   --compact=false                (different from default 'true')
c   --decompose=false              (different from default 'true')
c   --deduplicate=false            (different from default 'true')
c   --elim=false                   (different from default 'true')
c   --probe=false                  (different from default 'true')
c   --reduce=false                 (different from default 'true')
c   --subsume=false                (different from default 'true')
c   --ternary=false                (different from default 'true')
c   --transred=false               (different from default 'true')
c   --vivify=false                 (different from default 'true')
c 
c --- [ solving ] ------------------------------------------------------------
c 
c time measured in process time since initialization
c 
c  seconds  reductions  redundant  irredundant
c         MB    restarts       trail       variables
c          level   conflicts       glue          remaining
c 
c *  0.08 76  0 0   0    0    0  0% 0 469643 158337 97%
c {  0.11 78  0 0   0    0    0  0% 0 469643 158337 97%
c i  0.12 79 236 0   2  109   69 10% 4 469643 158320 97%
c i  0.12 79 230 0   2  111   70 10% 4 469643 158203 97%
c i  0.12 79 205 0   5  125   78  9% 4 469643 158076 97%
c i  0.12 79 73 0  11  317  207  6% 4 469643 158043 97%
c i  0.12 79 71 0  11  326  215  6% 3 469643 158021 97%
c i  0.12 79 56 0  11  427  278  6% 3 469643 158004 97%
c i  0.12 79 49 0  11  519  343  6% 3 469643 157709 96%
c i  0.12 79 49 0  11  521  343  6% 3 469643 157638 96%
c }  0.12 79 49 0  11  523  343  6% 3 469643 157484 96%
c 0  0.12 79 49 0  11  523  343  6% 3 469643 157484 96%
c 
c --- [ result ] -------------------------------------------------------------
c 
s UNSATISFIABLE
c 
c --- [ run-time profiling ] -------------------------------------------------
c 
c process time taken by individual solving procedures
c (percentage relative to process time for solving)
c 
c         0.08  212.76% parse
c         0.04   99.76% search
c         0.03   75.16% lucky
c         0.01   24.58% unstable
c         0.00    0.00% simplify
c   =================================
c         0.04   31.88% solve
c 
c last line shows process time for solving
c (percentage relative to total process time)
c 
c --- [ statistics ] ---------------------------------------------------------
c 
c chronological:               363        69.41 %  of conflicts
c conflicts:                   523     13380.75    per second
c decisions:                  3396     86885.33    per second
c fixed:                      5938         3.63 %  of all variables
c learned:                     475        90.82 %  per conflict
c learned_lits:               3991       100.00 %  learned literals
c minimized:                     0         0.00 %  learned literals
c shrunken:                   1258        31.52 %  learned literals
c minishrunken:                 78         1.95 %  learned literals
c otfs:                          1         0.19 %  of conflict
c propagations:             245216         6.27 M  per second
c restarts:                     11        47.55    interval
c subsumed:                    123         0.03 %  of all clauses
c strengthened:                  1         0.00 %  of all clauses
c 
c seconds are measured in process time for solving
c 
c --- [ resources ] ----------------------------------------------------------
c 
c total process time since initialization:         0.12    seconds
c total real time since initialization:            0.14    seconds
c maximum resident set size of process:           76.50    MB
c 
c --- [ shutting down ] ------------------------------------------------------
c 
c exit 20
